cases/pglib-opf/pglib_opf_case3_lmbd.m
ipopt
ACT
[info | PowerModels]: removing 3 cost terms from generator 3: Float64[]

******************************************************************************
This program contains Ipopt, a library for large-scale nonlinear optimization.
 Ipopt is released as open source code under the Eclipse Public License (EPL).
         For more information visit http://projects.coin-or.org/Ipopt
******************************************************************************

This is Ipopt version 3.13.2, running with linear solver mumps.
NOTE: Other linear solvers might be more efficient (see Ipopt documentation).

Number of nonzeros in equality constraint Jacobian...:       90
Number of nonzeros in inequality constraint Jacobian.:       24
Number of nonzeros in Lagrangian Hessian.............:       41

Total number of variables............................:       29
                     variables with only lower bounds:        0
                variables with lower and upper bounds:       26
                     variables with only upper bounds:        0
Total number of equality constraints.................:       25
Total number of inequality constraints...............:       12
        inequality constraints with only lower bounds:        3
   inequality constraints with lower and upper bounds:        0
        inequality constraints with only upper bounds:        9

iter    objective    inf_pr   inf_du lg(mu)  ||d||  lg(rg) alpha_du alpha_pr  ls
   0  6.3949934e+00 1.09e+00 1.53e+01  -1.0 0.00e+00    -  0.00e+00 0.00e+00   0
   1  4.7881989e+03 1.59e-01 1.56e+02  -1.0 1.80e+00    -  5.78e-03 9.14e-01h  1
   2  4.8639125e+03 1.57e-01 1.43e+02  -1.0 4.15e-01    -  5.38e-01 8.64e-02h  1
   3  5.1712975e+03 1.16e-01 9.04e+01  -1.0 4.57e-01    -  1.61e-01 3.66e-01h  1
   4  5.3554220e+03 1.03e-01 6.06e+01  -1.0 1.68e-01    -  3.89e-01 3.31e-01h  1
   5  5.4444282e+03 9.70e-02 4.66e+01  -1.0 2.62e-01    -  9.90e-01 2.34e-01h  1
   6  5.5924579e+03 6.30e-02 2.48e+01  -1.0 2.95e-01    -  9.95e-01 4.93e-01h  1
   7  5.6690945e+03 3.34e-02 2.13e+01  -1.0 2.75e-01    -  2.96e-01 4.59e-01h  1
   8  5.6713858e+03 3.37e-02 1.37e+02  -1.0 7.45e-02    -  2.12e-01 2.38e-02h  1
   9  5.7231981e+03 1.98e-02 8.54e+01  -1.0 2.03e-01    -  2.28e-01 4.09e-01h  1
iter    objective    inf_pr   inf_du lg(mu)  ||d||  lg(rg) alpha_du alpha_pr  ls
  10  5.7937664e+03 4.71e-03 6.57e+01  -1.0 1.20e-01    -  4.88e-01 7.67e-01h  1
  11  5.8131848e+03 1.20e-03 3.89e-01  -1.0 9.79e-02    -  1.00e+00 1.00e+00h  1
  12  5.8130439e+03 2.10e-06 1.63e-02  -1.7 4.21e-03    -  1.00e+00 1.00e+00h  1
  13  5.8126490e+03 6.42e-07 2.21e-03  -3.8 1.69e-03    -  9.98e-01 1.00e+00f  1
  14  5.8126459e+03 2.33e-10 2.04e-07  -3.8 3.47e-05    -  1.00e+00 1.00e+00h  1
  15  5.8126430e+03 3.79e-11 3.75e-08  -5.7 1.38e-05    -  1.00e+00 1.00e+00f  1
  16  5.8126429e+03 6.00e-15 5.90e-12  -8.6 1.74e-07    -  1.00e+00 1.00e+00h  1

Number of Iterations....: 16

                                   (scaled)                 (unscaled)
Objective...............:   1.1625285879807914e+03    5.8126429399039562e+03
Dual infeasibility......:   5.9021085849870428e-12    2.9510542924935214e-11
Constraint violation....:   5.9952043329758453e-15    5.9952043329758453e-15
Complementarity.........:   2.5100659724141364e-09    1.2550329862070681e-08
Overall NLP error.......:   2.5100659724141364e-09    1.2550329862070681e-08


Number of objective function evaluations             = 17
Number of objective gradient evaluations             = 17
Number of equality constraint evaluations            = 17
Number of inequality constraint evaluations          = 17
Number of equality constraint Jacobian evaluations   = 17
Number of inequality constraint Jacobian evaluations = 17
Number of Lagrangian Hessian evaluations             = 16
Total CPU secs in IPOPT (w/o function evaluations)   =      1.259
Total CPU secs in NLP function evaluations           =      2.271

EXIT: Optimal Solution Found.
Time to Solution........:4.287867069244385
